1 -1 0
1 -2 3 0
1 -4 0
1 2 0
1 -5 0
1 6 0
1 7 1 0
1 -1 -8 0
1 -8 0
1 -1 -7 0
1 2 -7 0
1 -8 1 0
1 -4 -2 0
1 3 0
1 -8 4 0
1 8 3 0
1 3 1 0
1 -1 4 0
1 -4 5 0
1 -8 -7 0
1 6 7 0
1 -2 -5 0
1 -5 2 0
1 6 -7 0
1 4 1 0
1 -8 3 0
1 6 5 0
1 -2 -4 0
1 5 -3 0
1 -7 -8 0
1 6 1 0
1 -7 8 0
1 4 -8 0
1 6 -3 0
1 -1 5 0
1 -7 0
1 6 3 0
1 2 -1 0
1 1 -4 0
1 3 -4 0
1 8 -4 0
h -9 2 0
h -10 3 0
h 2 -11 0
h 5 12 0
h -13 -14 0
1 -15 16 0
1 -4 -17 0
1 18 19 0
1 20 -21 0
1 -18 -22 0
1 23 24 0
1 -16 25 0
1 25 -26 0
1 -16 22 0
1 -18 -21 0
1 -20 19 0
1 20 -17 0
1 26 16 0
1 16 -21 0
1 -16 17 0
1 18 -4 0
1 -17 26 0
1 -27 16 0
1 27 0
1 9 0
1 -17 18 0
1 18 20 0
1 17 26 0
1 -26 28 0
1 29 0
1 -2 -27 0
1 15 -30 0
1 -31 -27 0
1 -32 0
1 33 0
1 20 -26 0
1 -2 -18 0
1 -22 17 0
1 -34 0
1 -27 -26 0
1 35 0
1 -17 27 0
1 27 -19 0
1 3 -18 0
1 18 27 0
1 -17 0
1 21 -16 0
1 -26 -22 0
1 18 0
1 -26 -17 0
1 27 26 0
1 6 -18 0
1 -23 22 0
1 -8 -21 0
1 32 23 0
1 21 22 0
1 -14 18 0
1 14 0
1 -21 -4 0
1 27 -32 0
1 -17 -27 0
1 22 -18 0
1 27 15 0
1 -22 18 0
1 -8 14 0
1 -3 26 0
1 26 0
1 5 13 0
1 22 20 0
1 25 0
1 27 -20 0
1 -28 27 0
1 23 0
1 -30 0
1 -20 -21 0
1 -16 14 0
1 36 -3 0
1 11 0
1 20 8 0
1 -37 0
1 15 -26 0
1 -27 32 0
1 22 27 0
1 1 22 0
1 -21 -3 0
1 27 16 0
1 21 19 0
1 -22 27 0
1 -19 -20 0
1 19 0
1 16 20 0
1 21 16 0
1 -30 -20 0
1 -8 -16 0
1 -12 -36 0
1 5 -21 0
1 -38 0
1 -20 13 0
1 33 -3 0
1 22 -16 0
1 17 23 0
1 16 -18 0
1 -20 -17 0
233405831 39 -26 0
126875744 38 21 0
159097611 -20 18 0
286228246 -20 -26 0
217603528 16 -17 0
1 20 0
1 16 0
1 14 -26 0
155131356 -17 -21 0
96677441 27 5 0
1 -22 -18 0
1 18 -16 0
167745997 27 17 0
295906109 27 -1 0
68199422 21 20 0
89786299 20 -18 0
1 -4 -1 0
1 -20 -1 0
1 -21 -5 0
1 -36 0
1 -26 -19 0
1 -26 18 0
1 -18 21 0
1 -16 -21 0
1 20 22 0
1 -17 -28 0
1 -25 33 0
1 31 0
1 -22 -29 0
1 19 -27 0
1 35 23 0
1 10 0
1 -16 19 0
1 -22 16 0
1 4 18 0
1 22 -20 0
1 -17 -20 0
1 22 21 0
1 -23 -18 0
1 -17 -26 0
1 -26 -4 0
1 26 -20 0
1 -26 29 0
1 11 -20 0
1 18 9 0
1 -21 0
1 -18 20 0
1 27 37 0
1 -20 -7 0
1 16 30 0
1 -20 25 0
1 -16 -26 0
1 18 26 0
1 18 -27 0
1 -20 21 0
1 18 -28 0
1 22 17 0
1 16 -22 0
1 -27 -33 0
1 -21 -20 0
1 -28 0
1 -21 -33 0
1 16 26 0
294525506 21 -17 0
83061839 18 -22 0
203870981 -27 22 0
186447838 36 -21 0
1 14 -20 0
1 1 20 0
1 26 20 0
1 27 -17 0
1 22 -40 0
1 -21 -22 0
1 26 -35 0
1 -21 25 0
1 19 26 0
1 -19 27 0
1 -39 0
1 8 19 0
1 -5 -21 0
1 17 -27 0
1 16 22 0
1 26 -21 0
1 -16 6 0
1 -16 3 0
h 34 26 0
1 -22 -36 0
1 16 27 0
1 18 -20 0
1 -33 27 0
1 -27 -20 0
114227212 -26 -3 0
172777420 27 25 0
1 21 -36 0
1 15 0
1 -17 -18 0
1 -27 20 0
1 -26 21 0
1 -20 26 0
235987595 -15 27 0
95913799 26 -16 0
174325423 26 -14 0
97743467 22 0
1 16 17 0
1 16 -1 0
h 41 42 0
1 -41 0
h 43 -44 0
1 -43 0
h 40 22 0
h -40 -22 0
h 45 -46 0
1 -45 0
h 47 29 0
1 -47 0
h 48 49 0
1 -48 0
h 50 -24 0
1 -50 0
h 51 22 0
1 -51 0
h 52 17 0
28246631 -52 0
h 53 -18 0
254971585 -53 0
h 54 -5 0
73198343 -54 0
h 55 -22 0
207241521 -55 0
h 56 -6 0
35475431 -56 0
h 57 -58 0
64371455 -57 0
h 59 -1 0
76306284 -59 0
